c nIsolatedPIs 0
c maxPI 16
p cnf 80 193
c gate 17 -8 16 0
-8 -17 0
16 -17 0
8 -16 17 0
c gate 18 8 -16 0
8 -18 0
-16 -18 0
-8 16 18 0
c gate 19 -17 -18 0
-17 -19 0
-18 -19 0
17 18 19 0
c gate 20 -7 15 0
-7 -20 0
15 -20 0
7 -15 20 0
c gate 21 5 -13 0
5 -21 0
-13 -21 0
-5 13 21 0
c gate 22 -5 13 0
-5 -22 0
13 -22 0
5 -13 22 0
c gate 23 -21 -22 0
-21 -23 0
-22 -23 0
21 22 23 0
c gate 24 6 -14 0
6 -24 0
-14 -24 0
-6 14 24 0
c gate 25 -6 14 0
-6 -25 0
14 -25 0
6 -14 25 0
c gate 26 -24 -25 0
-24 -26 0
-25 -26 0
24 25 26 0
c gate 27 23 26 0
23 -27 0
26 -27 0
-23 -26 27 0
c gate 28 -22 -25 0
-22 -28 0
-25 -28 0
22 25 28 0
c gate 29 -24 -28 0
-24 -29 0
-28 -29 0
24 28 29 0
c gate 30 -27 -29 0
-27 -30 0
-29 -30 0
27 29 30 0
c gate 31 4 -12 0
4 -31 0
-12 -31 0
-4 12 31 0
c gate 32 -4 12 0
-4 -32 0
12 -32 0
4 -12 32 0
c gate 33 3 -11 0
3 -33 0
-11 -33 0
-3 11 33 0
c gate 34 -3 11 0
-3 -34 0
11 -34 0
3 -11 34 0
c gate 35 -33 -34 0
-33 -35 0
-34 -35 0
33 34 35 0
c gate 36 -2 10 0
-2 -36 0
10 -36 0
2 -10 36 0
c gate 37 2 -10 0
2 -37 0
-10 -37 0
-2 10 37 0
c gate 38 -36 -37 0
-36 -38 0
-37 -38 0
36 37 38 0
c gate 39 1 -9 0
1 -39 0
-9 -39 0
-1 9 39 0
c gate 40 38 -39 0
38 -40 0
-39 -40 0
-38 39 40 0
c gate 41 -36 -40 0
-36 -41 0
-40 -41 0
36 40 41 0
c gate 42 35 41 0
35 -42 0
41 -42 0
-35 -41 42 0
c gate 43 -33 -42 0
-33 -43 0
-42 -43 0
33 42 43 0
c gate 44 -32 -43 0
-32 -44 0
-43 -44 0
32 43 44 0
c gate 45 -31 -44 0
-31 -45 0
-44 -45 0
31 44 45 0
c gate 46 -29 -45 0
-29 -46 0
-45 -46 0
29 45 46 0
c gate 47 -30 -46 0
-30 -47 0
-46 -47 0
30 46 47 0
c gate 48 -20 -47 0
-20 -48 0
-47 -48 0
20 47 48 0
c gate 49 7 -15 0
7 -49 0
-15 -49 0
-7 15 49 0
c gate 50 -1 9 0
-1 -50 0
9 -50 0
1 -9 50 0
c gate 51 40 -50 0
40 -51 0
-50 -51 0
-40 50 51 0
c gate 52 -31 -32 0
-31 -52 0
-32 -52 0
31 32 52 0
c gate 53 35 52 0
35 -53 0
52 -53 0
-35 -52 53 0
c gate 54 51 53 0
51 -54 0
53 -54 0
-51 -53 54 0
c gate 55 -20 -49 0
-20 -55 0
-49 -55 0
20 49 55 0
c gate 56 19 55 0
19 -56 0
55 -56 0
-19 -55 56 0
c gate 57 27 56 0
27 -57 0
56 -57 0
-27 -56 57 0
c gate 58 54 57 0
54 -58 0
57 -58 0
-54 -57 58 0
c gate 59 -30 -49 0
-30 -59 0
-49 -59 0
30 49 59 0
c gate 60 -20 -59 0
-20 -60 0
-59 -60 0
20 59 60 0
c gate 61 -18 -60 0
-18 -61 0
-60 -61 0
18 60 61 0
c gate 62 -17 -61 0
-17 -62 0
-61 -62 0
17 61 62 0
c gate 63 -45 57 0
-45 -63 0
57 -63 0
45 -57 63 0
c gate 64 -62 -63 0
-62 -64 0
-63 -64 0
62 63 64 0
c gate 65 -58 -64 0
-58 -65 0
-64 -65 0
58 64 65 0
c gate 66 -49 -65 0
-49 -66 0
-65 -66 0
49 65 66 0
c gate 67 -48 66 0
-48 -67 0
66 -67 0
48 -66 67 0
c gate 68 45 -54 0
45 -68 0
-54 -68 0
-45 54 68 0
c gate 69 27 -68 0
27 -69 0
-68 -69 0
-27 68 69 0
c gate 70 59 -69 0
59 -70 0
-69 -70 0
-59 69 70 0
c gate 71 -20 65 0
-20 -71 0
65 -71 0
20 -65 71 0
c gate 72 -70 71 0
-70 -72 0
71 -72 0
70 -71 72 0
c gate 73 -67 -72 0
-67 -73 0
-72 -73 0
67 72 73 0
c gate 74 -19 73 0
-19 -74 0
73 -74 0
19 -73 74 0
c gate 75 19 -73 0
19 -75 0
-73 -75 0
-19 73 75 0
c gate 76 17 -49 0
17 -76 0
-49 -76 0
-17 49 76 0
c gate 77 18 60 0
18 -77 0
60 -77 0
-18 -60 77 0
c gate 78 -76 -77 0
-76 -78 0
-77 -78 0
76 77 78 0
c gate 79 -75 78 0
-75 -79 0
78 -79 0
75 -78 79 0
c gate 80 -74 79 0
-74 -80 0
79 -80 0
74 -79 80 0
c PO
80 0
